1	2700	2500
2	1500	1600
3	800	900
4	1000	1100
5	900	850
6	1600	1500
7	800	700
8	1250	1000
9	900	800
10	750	800
11	950	750
12	600	700
13	850	900
14	450	400
15	500	400
16	400	350
17	600	500
18	800	900
19	650	850
20	550	450
21	900	1150
22	850	800